

******************************************************************************
This program contains Ipopt, a library for large-scale nonlinear optimization.
 Ipopt is released as open source code under the Eclipse Public License (EPL).
         For more information visit https://github.com/coin-or/Ipopt
******************************************************************************

This is Ipopt version 3.14.11, running with linear solver MUMPS 5.5.1.

Number of nonzeros in equality constraint Jacobian...:        0
Number of nonzeros in inequality constraint Jacobian.:      100
Number of nonzeros in Lagrangian Hessian.............:        6

Total number of variables............................:        5
                     variables with only lower bounds:        0
                variables with lower and upper bounds:        0
                     variables with only upper bounds:        0
Total number of equality constraints.................:        0
Total number of inequality constraints...............:       20
        inequality constraints with only lower bounds:        0
   inequality constraints with lower and upper bounds:        0
        inequality constraints with only upper bounds:       20

iter    objective    inf_pr   inf_du lg(mu)  ||d||  lg(rg) alpha_du alpha_pr  ls
   0  0.0000000e+00 8.22e+02 1.13e+00  -1.0 0.00e+00    -  0.00e+00 0.00e+00   0
   1  1.2484943e+00 8.22e+02 1.20e+00  -1.0 4.81e+03    -  2.28e-04 2.59e-04h  1
   2  2.8825467e+00 8.22e+02 1.28e+00  -1.0 5.22e+03    -  2.57e-04 3.13e-04h  1
   3  4.6999056e+00 8.22e+02 1.37e+00  -1.0 4.93e+03    -  4.51e-04 3.69e-04h  1
   4  1.1203973e+01 8.21e+02 1.27e+00  -1.0 5.60e+03    -  1.40e-04 1.16e-03h  3
   5  1.9820162e+01 8.20e+02 1.26e+00  -1.0 5.56e+03    -  2.34e-03 1.55e-03h  3
   6  3.4468105e+01 8.19e+02 1.73e+00  -1.0 5.52e+03    -  4.79e-03 2.65e-03h  3
   7  3.6714269e+01 8.18e+02 1.65e+00  -1.0 1.92e+03    -  2.85e-04 1.17e-03h  1
   8  3.8688132e+01 8.18e+02 6.97e+00  -1.0 5.25e+03    -  1.58e-02 3.76e-04h  1
   9  5.5998968e+01 8.16e+02 5.82e+00  -1.0 4.94e+03    -  1.60e-04 3.50e-03h  5
iter    objective    inf_pr   inf_du lg(mu)  ||d||  lg(rg) alpha_du alpha_pr  ls
  10  5.3338223e+01 8.15e+02 5.83e+00  -1.0 1.57e+03    -  1.16e-03 1.70e-03f  1
  11  5.4088422e+01 8.14e+02 6.40e+00  -1.0 4.13e+03    -  1.41e-02 1.82e-04h  1
  12  1.1710104e+02 7.26e+02 1.08e+01  -1.0 4.22e+03    -  7.57e-03 1.99e-03H  1
  13  1.3070013e+02 7.25e+02 9.68e+00  -1.0 3.63e+03    -  1.18e-04 3.75e-03h  1
  14  1.3794561e+02 7.24e+02 9.72e+00  -1.0 9.26e+03  -4.0 1.73e-03 7.83e-04h  1
  15  1.4185304e+02 7.13e+02 7.39e+00  -1.0 4.75e+03    -  9.03e-06 1.49e-04H  1
  16  1.4338850e+02 7.11e+02 7.37e+00  -1.0 5.15e+02  -2.7 1.70e-03 2.98e-03h  1
  17  1.5651860e+02 7.11e+02 7.02e+00  -1.0 8.15e+03    -  3.87e-05 1.61e-03h  2
  18  1.5007912e+02 7.10e+02 7.00e+00  -1.0 6.47e+03    -  6.55e-04 9.95e-04f  1
  19  1.5603580e+02 7.10e+02 7.01e+00  -1.0 1.50e+04    -  4.79e-04 3.96e-04h  3
iter    objective    inf_pr   inf_du lg(mu)  ||d||  lg(rg) alpha_du alpha_pr  ls
  20  1.5555119e+02 7.09e+02 6.85e+00  -1.0 3.47e+02  -3.1 7.41e-03 1.40e-03h  1
  21  1.5574855e+02 7.08e+02 4.54e+00  -1.0 3.30e+03    -  4.37e-04 1.47e-05H  1
  22  2.0736458e+02 7.03e+02 4.29e+00  -1.0 2.79e+03    -  8.16e-03 1.85e-02h  1
  23  2.5203814e+02 6.97e+02 4.96e+00  -1.0 3.81e+03    -  9.50e-03 1.17e-02h  1
  24  2.8114753e+02 6.83e+02 1.08e+01  -1.0 1.43e+03    -  1.49e-04 2.04e-02h  1
  25  2.8138449e+02 6.83e+02 6.41e+00  -1.0 1.27e+03    -  1.83e-02 1.87e-04h  1
  26  9.8037456e+02 2.57e+02 4.93e+01  -1.0 1.98e+03    -  1.34e-04 1.28e-01H  1
  27 -4.0072253e+03 1.78e+04 3.03e+02  -1.0 4.99e+03    -  3.21e-02 1.00e+00f  1
  28 -4.2006018e+03 1.69e+04 2.88e+02  -1.0 3.87e+03    -  1.01e-01 5.00e-02f  1
  29 -4.3792517e+03 1.53e+04 2.58e+02  -1.0 1.75e+03    -  3.51e-01 1.02e-01f  1
iter    objective    inf_pr   inf_du lg(mu)  ||d||  lg(rg) alpha_du alpha_pr  ls
  30 -4.6322416e+03 5.59e+03 2.44e+01  -1.0 2.53e+02    -  5.51e-03 1.00e+00h  1
  31 -4.4654968e+03 5.38e+03 2.35e+01  -1.0 4.43e+03    -  1.11e-01 3.77e-02h  1
  32 -4.4387845e+03 5.35e+03 2.34e+01  -1.0 5.22e+03    -  1.82e-01 5.12e-03h  1
  33  3.9813782e+02 1.47e+02 1.49e+01  -1.0 4.84e+03    -  2.30e-03 1.00e+00h  1
  34  2.5114278e+02 1.57e+02 1.05e+01  -1.0 5.18e+02  -2.7 2.65e-01 2.84e-01f  1
  35 -4.8228019e+01 6.89e+02 5.05e+01  -1.0 2.99e+02  -2.3 1.54e-02 1.00e+00f  1
  36 -1.8381554e+02 7.23e+02 2.25e+01  -1.0 1.36e+02  -1.9 1.00e+00 1.00e+00f  1
  37 -1.8607257e+02 5.23e+02 3.66e+01  -1.0 2.48e+01  -0.5 4.27e-02 5.38e-01h  1
  38 -1.2688643e+02 4.49e+02 3.11e+01  -1.0 4.03e+02  -1.0 1.83e-01 1.47e-01h  1
  39  1.0603019e+01 2.27e+02 1.74e+01  -1.0 2.75e+02    -  9.45e-01 5.01e-01h  1
iter    objective    inf_pr   inf_du lg(mu)  ||d||  lg(rg) alpha_du alpha_pr  ls
  40  1.3574514e+01 2.23e+02 1.71e+01  -1.0 1.59e+02    -  7.33e-02 1.87e-02h  1
  41  3.5977893e+01 1.54e+02 1.20e+01  -1.0 1.52e+02    -  1.84e-01 3.20e-01h  1
  42  3.7311272e+01 1.52e+02 1.18e+01  -1.0 9.64e+01    -  1.24e-01 1.38e-02h  1
  43  7.3248541e+01 7.70e+01 6.64e+00  -1.0 1.09e+02    -  2.20e-01 5.08e-01h  1
  44  7.3772105e+01 7.58e+01 6.54e+00  -1.0 1.10e+02    -  2.27e-01 1.53e-02h  1
  45  8.6997014e+01 4.42e+01 4.33e+00  -1.0 1.50e+02    -  3.00e-01 6.06e-01h  1
  46  8.7678578e+01 4.38e+01 4.21e+00  -1.0 3.08e+01    -  1.00e+00 2.95e-02h  1
  47  1.1538996e+02 1.30e+00 7.15e-01  -1.0 2.77e+01    -  1.00e+00 1.00e+00h  1
  48  1.1552786e+02 1.20e+00 2.60e-03  -1.0 3.32e+00    -  1.00e+00 1.00e+00h  1
  49  1.1602178e+02 0.00e+00 4.31e-04  -1.0 4.94e-01    -  1.00e+00 1.00e+00h  1
iter    objective    inf_pr   inf_du lg(mu)  ||d||  lg(rg) alpha_du alpha_pr  ls
  50  1.1572589e+02 0.00e+00 5.66e-03  -2.5 5.49e-01    -  1.00e+00 9.15e-01f  1
  51  1.1570687e+02 0.00e+00 1.38e-06  -3.8 4.87e-02    -  1.00e+00 1.00e+00h  1
  52  1.1570645e+02 0.00e+00 3.60e-10  -5.7 7.43e-04    -  1.00e+00 1.00e+00h  1
  53  1.1570644e+02 0.00e+00 5.38e-14  -8.6 9.91e-06    -  1.00e+00 1.00e+00h  1

Number of Iterations....: 53

                                   (scaled)                 (unscaled)
Objective...............:   1.1570643951851933e+02    1.1570643951851933e+02
Dual infeasibility......:   5.3762549967473205e-14    5.3762549967473205e-14
Constraint violation....:   0.0000000000000000e+00    0.0000000000000000e+00
Variable bound violation:   0.0000000000000000e+00    0.0000000000000000e+00
Complementarity.........:   2.5078656955595756e-09    2.5078656955595756e-09
Overall NLP error.......:   2.5078656955595756e-09    2.5078656955595756e-09


Number of objective function evaluations             = 78
Number of objective gradient evaluations             = 54
Number of equality constraint evaluations            = 0
Number of inequality constraint evaluations          = 78
Number of equality constraint Jacobian evaluations   = 0
Number of inequality constraint Jacobian evaluations = 54
Number of Lagrangian Hessian evaluations             = 53
Total seconds in IPOPT                               = 0.043

EXIT: Optimal Solution Found.
 
Ipopt 3.14.11: Optimal Solution Found
